
  22   10
  10   10   10   10   10   10   10   10   10   10

   0   0   0   0   0   0   0   0   0   0   0  12 2 3 4 5 6 7 8 9 10 11 20 21 
   8   0   0   0   0   0   0  10   0   0   0   4 19 18 15 13 
   8   0   0   0   0   0  10   0   0   0   0   3 16 14 12 
   3   0   0   0   0   0  10   0   0   0   0   2 16 14 
  10   0   0  10   0   0   0   0   0   0   0   2 17 12 
  10  10   0   0   0   0   0   0   0   0   0   1 12 
   2   0   0   0   0   0   0   0  10   0   0   1 15 
   9   0   0   0   0   0   0   0   0   0  10   1 14 
   2   0   0   0   0  10   0   0   0   0   0   1 13 
   5   0   0   0  10   0   0   0   0   0   0   1 13 
   1   0   0   0   0   0   0  10   0   0   0   1 12 
   7   0   0   0   0   0   0   0   0  10   0   1 22
   9   0   0   0  10   0   0   0   0   0   0   1 22
   6   0   0   0   0   0   0   0   0  10   0   1 22
   5   0  10   0   0   0   0   0   0   0   0   1 22
   3   0   0   0   0   0  10   0   0   0   0   1 22
   8   0   0   0   0  10   0   0   0   0   0   1 22
   9   0  10   0   0   0   0   0   0   0   0   1 22
   8   0   0   0  10   0   0   0   0   0   0   1 22
   6   0   0   0   0  10   0   0   0   0   0   1 22
   2   0   0   0   0  10   0   0   0   0   0   1 22
   0   0   0   0   0   0   0   0   0   0   0   0 
